p cnf 559 1441
c uncontrollable inputs:
a 1 2 5 6 9 11 13 0
c state variables:
a 16 17 18 19 20 21 22 23 24 25 26 27 28 29 30 31 32 33 34 35 36 37 38 39 40 41 42 43 44 45 46 0
c next state variables:
a 47 48 49 50 51 52 53 54 55 56 57 58 59 60 61 62 63 64 65 66 67 68 69 70 71 72 73 74 75 76 77 0
c controllable inputs
d 3 1 2 5 6 9 11 13 16 17 18 19 20 21 22 23 24 25 26 27 28 29 30 31 32 33 34 35 36 37 38 39 40 41 42 43 44 45 46 0
d 4 1 2 5 6 9 11 13 16 17 18 19 20 21 22 23 24 25 26 27 28 29 30 31 32 33 34 35 36 37 38 39 40 41 42 43 44 45 46 0
d 7 1 2 5 6 9 11 13 16 17 18 19 20 21 22 23 24 25 26 27 28 29 30 31 32 33 34 35 36 37 38 39 40 41 42 43 44 45 46 0
d 8 1 2 5 6 9 11 13 16 17 18 19 20 21 22 23 24 25 26 27 28 29 30 31 32 33 34 35 36 37 38 39 40 41 42 43 44 45 46 0
d 10 1 2 5 6 9 11 13 16 17 18 19 20 21 22 23 24 25 26 27 28 29 30 31 32 33 34 35 36 37 38 39 40 41 42 43 44 45 46 0
d 12 1 2 5 6 9 11 13 16 17 18 19 20 21 22 23 24 25 26 27 28 29 30 31 32 33 34 35 36 37 38 39 40 41 42 43 44 45 46 0
d 14 1 2 5 6 9 11 13 16 17 18 19 20 21 22 23 24 25 26 27 28 29 30 31 32 33 34 35 36 37 38 39 40 41 42 43 44 45 46 0
d 15 1 2 5 6 9 11 13 16 17 18 19 20 21 22 23 24 25 26 27 28 29 30 31 32 33 34 35 36 37 38 39 40 41 42 43 44 45 46 0
c winning region (state)
d 78 16 17 18 19 20 21 22 23 24 25 26 27 28 29 30 31 32 33 34 35 36 37 38 39 40 41 42 43 44 45 46 0
c winning region (next state)
d 79 47 48 49 50 51 52 53 54 55 56 57 58 59 60 61 62 63 64 65 66 67 68 69 70 71 72 73 74 75 76 77 0
c tseitin variables
e 80 81 82 83 84 85 86 87 88 89 90 91 92 93 94 95 96 97 98 99 100 101 102 103 104 105 106 107 108 109 110 111 112 113 114 115 116 117 118 119 120 121 122 123 124 125 126 127 128 129 130 131 132 133 134 135 136 137 138 139 140 141 142 143 144 145 146 147 148 149 150 151 152 153 154 155 156 157 158 159 160 161 162 163 164 165 166 167 168 169 170 171 172 173 174 175 176 177 178 179 180 181 182 183 184 185 186 187 188 189 190 191 192 193 194 195 196 197 198 199 200 201 202 203 204 205 206 207 208 209 210 211 212 213 214 215 216 217 218 219 220 221 222 223 224 225 226 227 228 229 230 231 232 233 234 235 236 237 238 239 240 241 242 243 244 245 246 247 248 249 250 251 252 253 254 255 256 257 258 259 260 261 262 263 264 265 266 267 268 269 270 271 272 273 274 275 276 277 278 279 280 281 282 283 284 285 286 287 288 289 290 291 292 293 294 295 296 297 298 299 300 301 302 303 304 305 306 307 308 309 310 311 312 313 314 315 316 317 318 319 320 321 322 323 324 325 326 327 328 329 330 331 332 333 334 335 336 337 338 339 340 341 342 343 344 345 346 347 348 349 350 351 352 353 354 355 356 357 358 359 360 361 362 363 364 365 366 367 368 369 370 371 372 373 374 375 376 377 378 379 380 381 382 383 384 385 386 387 388 389 390 391 392 393 394 395 396 397 398 399 400 401 402 403 404 405 406 407 408 409 410 411 412 413 414 415 416 417 418 419 420 421 422 423 424 425 426 427 428 429 430 431 432 433 434 435 436 437 438 439 440 441 442 443 444 445 446 447 448 449 450 451 452 453 454 455 456 457 458 459 460 461 462 463 464 465 466 467 468 469 470 471 472 473 474 475 476 477 478 479 480 481 482 483 484 485 486 487 488 489 490 491 492 493 494 495 496 497 498 499 500 501 502 503 504 505 506 507 508 509 510 511 512 513 514 515 516 517 518 519 520 521 522 523 524 525 526 527 528 529 530 531 532 533 534 535 536 537 538 539 540 541 542 543 544 545 546 547 548 549 550 551 552 553 554 555 556 557 558 559 0
c clauses:
-80 -47 0
-80 16 0
80 47 -16 0
-81 47 0
-81 -16 0
81 -47 16 0
-82 -80 0
-82 -81 0
82 80 81 0
-83 -48 0
-83 17 0
83 48 -17 0
-84 48 0
-84 -17 0
84 -48 17 0
-85 -83 0
-85 -84 0
85 83 84 0
-86 82 0
-86 85 0
86 -82 -85 0
-87 -49 0
-87 18 0
87 49 -18 0
-88 49 0
-88 -18 0
88 -49 18 0
-89 -87 0
-89 -88 0
89 87 88 0
-90 -50 0
-90 19 0
90 50 -19 0
-91 50 0
-91 -19 0
91 -50 19 0
-92 -90 0
-92 -91 0
92 90 91 0
-93 89 0
-93 92 0
93 -89 -92 0
-94 86 0
-94 93 0
94 -86 -93 0
-95 -51 0
-95 20 0
95 51 -20 0
-96 51 0
-96 -20 0
96 -51 20 0
-97 -95 0
-97 -96 0
97 95 96 0
-98 -52 0
-98 21 0
98 52 -21 0
-99 52 0
-99 -21 0
99 -52 21 0
-100 -98 0
-100 -99 0
100 98 99 0
-101 97 0
-101 100 0
101 -97 -100 0
-102 -53 0
-102 22 0
102 53 -22 0
-103 53 0
-103 -22 0
103 -53 22 0
-104 -102 0
-104 -103 0
104 102 103 0
-105 -54 0
-105 23 0
105 54 -23 0
-106 54 0
-106 -23 0
106 -54 23 0
-107 -105 0
-107 -106 0
107 105 106 0
-108 104 0
-108 107 0
108 -104 -107 0
-109 101 0
-109 108 0
109 -101 -108 0
-110 94 0
-110 109 0
110 -94 -109 0
-111 -55 0
-111 24 0
111 55 -24 0
-112 55 0
-112 -24 0
112 -55 24 0
-113 -111 0
-113 -112 0
113 111 112 0
-114 -56 0
-114 25 0
114 56 -25 0
-115 56 0
-115 -25 0
115 -56 25 0
-116 -114 0
-116 -115 0
116 114 115 0
-117 113 0
-117 116 0
117 -113 -116 0
-118 -57 0
-118 26 0
118 57 -26 0
-119 57 0
-119 -26 0
119 -57 26 0
-120 -118 0
-120 -119 0
120 118 119 0
-121 -58 0
-121 27 0
121 58 -27 0
-122 58 0
-122 -27 0
122 -58 27 0
-123 -121 0
-123 -122 0
123 121 122 0
-124 120 0
-124 123 0
124 -120 -123 0
-125 117 0
-125 124 0
125 -117 -124 0
-126 -59 0
-126 28 0
126 59 -28 0
-127 59 0
-127 -28 0
127 -59 28 0
-128 -126 0
-128 -127 0
128 126 127 0
-129 -60 0
-129 29 0
129 60 -29 0
-130 60 0
-130 -29 0
130 -60 29 0
-131 -129 0
-131 -130 0
131 129 130 0
-132 128 0
-132 131 0
132 -128 -131 0
-133 -61 0
-133 30 0
133 61 -30 0
-134 61 0
-134 -30 0
134 -61 30 0
-135 -133 0
-135 -134 0
135 133 134 0
-136 -62 0
-136 31 0
136 62 -31 0
-137 62 0
-137 -31 0
137 -62 31 0
-138 -136 0
-138 -137 0
138 136 137 0
-139 135 0
-139 138 0
139 -135 -138 0
-140 132 0
-140 139 0
140 -132 -139 0
-141 125 0
-141 140 0
141 -125 -140 0
-142 110 0
-142 141 0
142 -110 -141 0
-143 -63 0
-143 32 0
143 63 -32 0
-144 63 0
-144 -32 0
144 -63 32 0
-145 -143 0
-145 -144 0
145 143 144 0
-146 -64 0
-146 33 0
146 64 -33 0
-147 64 0
-147 -33 0
147 -64 33 0
-148 -146 0
-148 -147 0
148 146 147 0
-149 145 0
-149 148 0
149 -145 -148 0
-150 -65 0
-150 34 0
150 65 -34 0
-151 65 0
-151 -34 0
151 -65 34 0
-152 -150 0
-152 -151 0
152 150 151 0
-153 -66 0
-153 35 0
153 66 -35 0
-154 66 0
-154 -35 0
154 -66 35 0
-155 -153 0
-155 -154 0
155 153 154 0
-156 152 0
-156 155 0
156 -152 -155 0
-157 149 0
-157 156 0
157 -149 -156 0
-158 -67 0
-158 36 0
158 67 -36 0
-159 67 0
-159 -36 0
159 -67 36 0
-160 -158 0
-160 -159 0
160 158 159 0
-161 -68 0
-161 37 0
161 68 -37 0
-162 68 0
-162 -37 0
162 -68 37 0
-163 -161 0
-163 -162 0
163 161 162 0
-164 160 0
-164 163 0
164 -160 -163 0
-165 -69 0
-165 38 0
165 69 -38 0
-166 69 0
-166 -38 0
166 -69 38 0
-167 -165 0
-167 -166 0
167 165 166 0
-168 -70 0
-168 39 0
168 70 -39 0
-169 70 0
-169 -39 0
169 -70 39 0
-170 -168 0
-170 -169 0
170 168 169 0
-171 167 0
-171 170 0
171 -167 -170 0
-172 164 0
-172 171 0
172 -164 -171 0
-173 157 0
-173 172 0
173 -157 -172 0
-174 -71 0
-174 40 0
174 71 -40 0
-175 71 0
-175 -40 0
175 -71 40 0
-176 -174 0
-176 -175 0
176 174 175 0
-177 -72 0
-177 41 0
177 72 -41 0
-178 72 0
-178 -41 0
178 -72 41 0
-179 -177 0
-179 -178 0
179 177 178 0
-180 176 0
-180 179 0
180 -176 -179 0
-181 -73 0
-181 42 0
181 73 -42 0
-182 73 0
-182 -42 0
182 -73 42 0
-183 -181 0
-183 -182 0
183 181 182 0
-184 -74 0
-184 43 0
184 74 -43 0
-185 74 0
-185 -43 0
185 -74 43 0
-186 -184 0
-186 -185 0
186 184 185 0
-187 183 0
-187 186 0
187 -183 -186 0
-188 180 0
-188 187 0
188 -180 -187 0
-189 -77 0
-189 46 0
189 77 -46 0
-190 77 0
-190 -46 0
190 -77 46 0
-191 -189 0
-191 -190 0
191 189 190 0
-192 -75 0
-192 44 0
192 75 -44 0
-193 75 0
-193 -44 0
193 -75 44 0
-194 -192 0
-194 -193 0
194 192 193 0
-195 -76 0
-195 45 0
195 76 -45 0
-196 76 0
-196 -45 0
196 -76 45 0
-197 -195 0
-197 -196 0
197 195 196 0
-198 194 0
-198 197 0
198 -194 -197 0
-199 191 0
-199 198 0
199 -191 -198 0
-200 188 0
-200 199 0
200 -188 -199 0
-201 173 0
-201 200 0
201 -173 -200 0
-202 142 0
-202 201 0
202 -142 -201 0
-203 79 0
-203 -78 0
203 -79 78 0
-204 -79 0
-204 78 0
204 79 -78 0
-205 -203 0
-205 -204 0
205 203 204 0
-206 202 0
-206 -205 0
206 -202 205 0
-207 30 0
-207 16 0
207 -30 -16 0
-208 -17 0
-208 207 0
208 17 -207 0
-209 -8 0
-209 2 0
209 8 -2 0
-210 21 0
-210 16 0
210 -21 -16 0
-211 209 0
-211 -210 0
211 -209 210 0
-212 8 0
-212 1 0
212 -8 -1 0
-213 45 0
-213 16 0
213 -45 -16 0
-214 212 0
-214 -213 0
214 -212 213 0
-215 24 0
-215 16 0
215 -24 -16 0
-216 22 0
-216 16 0
216 -22 -16 0
-217 18 0
-217 16 0
217 -18 -16 0
-218 -216 0
-218 -217 0
218 216 217 0
-219 -215 0
-219 218 0
219 215 -218 0
-220 29 0
-220 16 0
220 -29 -16 0
-221 -219 0
-221 -220 0
221 219 220 0
-222 -221 0
-222 -208 0
222 221 208 0
-223 -214 0
-223 222 0
223 214 -222 0
-224 -211 0
-224 223 0
224 211 -223 0
-225 -208 0
-225 -224 0
225 208 224 0
-226 -48 0
-226 225 0
226 48 -225 0
-227 48 0
-227 -225 0
227 -48 225 0
-228 -226 0
-228 -227 0
228 226 227 0
-229 47 0
-229 228 0
229 -47 -228 0
-230 -4 0
-230 3 0
230 4 -3 0
-231 -6 0
-231 230 0
231 6 -230 0
-232 219 0
-232 231 0
232 -219 -231 0
-233 5 0
-233 232 0
233 -5 -232 0
-234 -13 0
-234 233 0
234 13 -233 0
-235 -22 0
-235 217 0
235 22 -217 0
-236 -215 0
-236 235 0
236 215 -235 0
-237 13 0
-237 236 0
237 -13 -236 0
-238 -18 0
-238 216 0
238 18 -216 0
-239 -215 0
-239 238 0
239 215 -238 0
-240 13 0
-240 239 0
240 -13 -239 0
-241 18 0
-241 216 0
241 -18 -216 0
-242 -215 0
-242 241 0
242 215 -241 0
-243 13 0
-243 242 0
243 -13 -242 0
-244 217 0
-244 -243 0
244 -217 243 0
-245 -240 0
-245 -244 0
245 240 244 0
-246 -237 0
-246 -245 0
246 237 245 0
-247 -234 0
-247 -246 0
247 234 246 0
-248 -49 0
-248 -247 0
248 49 247 0
-249 49 0
-249 247 0
249 -49 -247 0
-250 -248 0
-250 -249 0
250 248 249 0
-251 -209 0
-251 -210 0
251 209 210 0
-252 -212 0
-252 -213 0
252 212 213 0
-253 219 0
-253 -220 0
253 -219 220 0
-254 17 0
-254 16 0
254 -17 -16 0
-255 -207 0
-255 -254 0
255 207 254 0
-256 -253 0
-256 -255 0
256 253 255 0
-257 -252 0
-257 256 0
257 252 -256 0
-258 -251 0
-258 257 0
258 251 -257 0
-259 19 0
-259 16 0
259 -19 -16 0
-260 -13 0
-260 -259 0
260 13 259 0
-261 34 0
-261 16 0
261 -34 -16 0
-262 -32 0
-262 261 0
262 32 -261 0
-263 -260 0
-263 262 0
263 260 -262 0
-264 258 0
-264 263 0
264 -258 -263 0
-265 -224 0
-265 264 0
265 224 -264 0
-266 -50 0
-266 265 0
266 50 -265 0
-267 50 0
-267 -265 0
267 -50 265 0
-268 -266 0
-268 -267 0
268 266 267 0
-269 250 0
-269 268 0
269 -250 -268 0
-270 229 0
-270 269 0
270 -229 -269 0
-271 -51 0
-271 7 0
271 51 -7 0
-272 51 0
-272 -7 0
272 -51 7 0
-273 -271 0
-273 -272 0
273 271 272 0
-274 -211 0
-274 -223 0
274 211 223 0
-275 -52 0
-275 274 0
275 52 -274 0
-276 52 0
-276 -274 0
276 -52 274 0
-277 -275 0
-277 -276 0
277 275 276 0
-278 273 0
-278 277 0
278 -273 -277 0
-279 13 0
-279 233 0
279 -13 -233 0
-280 216 0
-280 -243 0
280 -216 243 0
-281 -237 0
-281 -280 0
281 237 280 0
-282 -279 0
-282 281 0
282 279 -281 0
-283 -53 0
-283 -282 0
283 53 282 0
-284 53 0
-284 282 0
284 -53 -282 0
-285 -283 0
-285 -284 0
285 283 284 0
-286 -54 0
-286 14 0
286 54 -14 0
-287 54 0
-287 -14 0
287 -54 14 0
-288 -286 0
-288 -287 0
288 286 287 0
-289 285 0
-289 288 0
289 -285 -288 0
-290 278 0
-290 289 0
290 -278 -289 0
-291 270 0
-291 290 0
291 -270 -290 0
-292 13 0
-292 218 0
292 -13 -218 0
-293 215 0
-293 -292 0
293 -215 292 0
-294 -243 0
-294 -293 0
294 243 293 0
-295 -55 0
-295 -294 0
295 55 294 0
-296 55 0
-296 294 0
296 -55 -294 0
-297 -295 0
-297 -296 0
297 295 296 0
-298 -56 0
-298 1 0
298 56 -1 0
-299 56 0
-299 -1 0
299 -56 1 0
-300 -298 0
-300 -299 0
300 298 299 0
-301 297 0
-301 300 0
301 -297 -300 0
-302 -57 0
-302 12 0
302 57 -12 0
-303 57 0
-303 -12 0
303 -57 12 0
-304 -302 0
-304 -303 0
304 302 303 0
-305 -58 0
-305 4 0
305 58 -4 0
-306 58 0
-306 -4 0
306 -58 4 0
-307 -305 0
-307 -306 0
307 305 306 0
-308 304 0
-308 307 0
308 -304 -307 0
-309 301 0
-309 308 0
309 -301 -308 0
-310 -59 0
-310 2 0
310 59 -2 0
-311 59 0
-311 -2 0
311 -59 2 0
-312 -310 0
-312 -311 0
312 310 311 0
-313 -221 0
-313 -224 0
313 221 224 0
-314 -60 0
-314 313 0
314 60 -313 0
-315 60 0
-315 -313 0
315 -60 313 0
-316 -314 0
-316 -315 0
316 314 315 0
-317 312 0
-317 316 0
317 -312 -316 0
-318 -5 0
-318 231 0
318 5 -231 0
-319 -207 0
-319 318 0
319 207 -318 0
-320 12 0
-320 207 0
320 -12 -207 0
-321 -319 0
-321 -320 0
321 319 320 0
-322 -61 0
-322 -321 0
322 61 321 0
-323 61 0
-323 321 0
323 -61 -321 0
-324 -322 0
-324 -323 0
324 322 323 0
-325 31 0
-325 16 0
325 -31 -16 0
-326 10 0
-326 -325 0
326 -10 325 0
327 -2 0
327 -326 0
-327 2 326 0
-328 -62 0
-328 -327 0
328 62 327 0
-329 62 0
-329 327 0
329 -62 -327 0
-330 -328 0
-330 -329 0
330 328 329 0
-331 324 0
-331 330 0
331 -324 -330 0
-332 317 0
-332 331 0
332 -317 -331 0
-333 309 0
-333 332 0
333 -309 -332 0
-334 291 0
-334 333 0
334 -291 -333 0
-335 260 0
-335 -262 0
335 -260 262 0
-336 258 0
-336 335 0
336 -258 -335 0
-337 -224 0
-337 336 0
337 224 -336 0
-338 -63 0
-338 337 0
338 63 -337 0
-339 63 0
-339 -337 0
339 -63 337 0
-340 -338 0
-340 -339 0
340 338 339 0
-341 -64 0
-341 15 0
341 64 -15 0
-342 64 0
-342 -15 0
342 -64 15 0
-343 -341 0
-343 -342 0
343 341 342 0
-344 340 0
-344 343 0
344 -340 -343 0
-345 3 0
-345 -261 0
345 -3 261 0
-346 -6 0
-346 345 0
346 6 -345 0
-347 -5 0
-347 346 0
347 5 -346 0
-348 12 0
-348 261 0
348 -12 -261 0
-349 -347 0
-349 -348 0
349 347 348 0
-350 -65 0
-350 -349 0
350 65 349 0
-351 65 0
-351 349 0
351 -65 -349 0
-352 -350 0
-352 -351 0
352 350 351 0
-353 -66 0
-353 3 0
353 66 -3 0
-354 66 0
-354 -3 0
354 -66 3 0
-355 -353 0
-355 -354 0
355 353 354 0
-356 352 0
-356 355 0
356 -352 -355 0
-357 344 0
-357 356 0
357 -344 -356 0
-358 -67 0
-358 11 0
358 67 -11 0
-359 67 0
-359 -11 0
359 -67 11 0
-360 -358 0
-360 -359 0
360 358 359 0
-361 37 0
-361 16 0
361 -37 -16 0
-362 -260 0
-362 -262 0
362 260 262 0
-363 361 0
-363 -362 0
363 -361 362 0
-364 -361 0
-364 362 0
364 361 -362 0
-365 -363 0
-365 -364 0
365 363 364 0
-366 258 0
-366 -365 0
366 -258 365 0
-367 -224 0
-367 366 0
367 224 -366 0
-368 -68 0
-368 367 0
368 68 -367 0
-369 68 0
-369 -367 0
369 -68 367 0
-370 -368 0
-370 -369 0
370 368 369 0
-371 360 0
-371 370 0
371 -360 -370 0
-372 -38 0
-372 361 0
372 38 -361 0
-373 362 0
-373 372 0
373 -362 -372 0
-374 38 0
-374 16 0
374 -38 -16 0
-375 37 0
-375 362 0
375 -37 -362 0
-376 374 0
-376 -375 0
376 -374 375 0
-377 -373 0
-377 -376 0
377 373 376 0
-378 258 0
-378 -377 0
378 -258 377 0
-379 -224 0
-379 378 0
379 224 -378 0
-380 -69 0
-380 379 0
380 69 -379 0
-381 69 0
-381 -379 0
381 -69 379 0
-382 -380 0
-382 -381 0
382 380 381 0
-383 39 0
-383 16 0
383 -39 -16 0
-384 383 0
-384 -362 0
384 -383 362 0
-385 38 0
-385 361 0
385 -38 -361 0
-386 383 0
-386 385 0
386 -383 -385 0
-387 -383 0
-387 -385 0
387 383 385 0
388 -386 0
388 -387 0
-388 386 387 0
-389 362 0
-389 -388 0
389 -362 388 0
-390 -384 0
-390 -389 0
390 384 389 0
-391 258 0
-391 -390 0
391 -258 390 0
-392 -224 0
-392 391 0
392 224 -391 0
-393 -70 0
-393 392 0
393 70 -392 0
-394 70 0
-394 -392 0
394 -70 392 0
-395 -393 0
-395 -394 0
395 393 394 0
-396 382 0
-396 395 0
396 -382 -395 0
-397 371 0
-397 396 0
397 -371 -396 0
-398 357 0
-398 397 0
398 -357 -397 0
-399 40 0
-399 16 0
399 -40 -16 0
-400 362 0
-400 386 0
400 -362 -386 0
-401 399 0
-401 -400 0
401 -399 400 0
-402 -399 0
-402 400 0
402 399 -400 0
-403 -401 0
-403 -402 0
403 401 402 0
-404 258 0
-404 -403 0
404 -258 403 0
-405 -224 0
-405 404 0
405 224 -404 0
-406 -71 0
-406 405 0
406 71 -405 0
-407 71 0
-407 -405 0
407 -71 405 0
-408 -406 0
-408 -407 0
408 406 407 0
-409 41 0
-409 16 0
409 -41 -16 0
-410 11 0
-410 -2 0
410 -11 2 0
-411 9 0
-411 -1 0
411 -9 1 0
-412 -410 0
-412 -411 0
412 410 411 0
-413 -409 0
-413 412 0
413 409 -412 0
-414 -72 0
-414 -413 0
414 72 413 0
-415 72 0
-415 413 0
415 -72 -413 0
-416 -414 0
-416 -415 0
416 414 415 0
-417 408 0
-417 416 0
417 -408 -416 0
-418 -73 0
-418 9 0
418 73 -9 0
-419 73 0
-419 -9 0
419 -73 9 0
-420 -418 0
-420 -419 0
420 418 419 0
-421 -74 0
-421 13 0
421 74 -13 0
-422 74 0
-422 -13 0
422 -74 13 0
-423 -421 0
-423 -422 0
423 421 422 0
-424 420 0
-424 423 0
424 -420 -423 0
-425 417 0
-425 424 0
425 -417 -424 0
-426 -77 0
-426 8 0
426 77 -8 0
-427 77 0
-427 -8 0
427 -77 8 0
-428 -426 0
-428 -427 0
428 426 427 0
-429 -75 0
-429 10 0
429 75 -10 0
-430 75 0
-430 -10 0
430 -75 10 0
-431 -429 0
-431 -430 0
431 429 430 0
-432 -214 0
-432 -224 0
432 214 224 0
-433 -76 0
-433 432 0
433 76 -432 0
-434 76 0
-434 -432 0
434 -76 432 0
-435 -433 0
-435 -434 0
435 433 434 0
-436 431 0
-436 435 0
436 -431 -435 0
-437 428 0
-437 436 0
437 -428 -436 0
-438 425 0
-438 437 0
438 -425 -437 0
-439 398 0
-439 438 0
439 -398 -438 0
-440 334 0
-440 439 0
440 -334 -439 0
-441 440 0
-441 204 0
441 -440 -204 0
-442 -28 0
-442 -25 0
442 28 25 0
443 16 0
443 -442 0
-443 -16 442 0
-444 23 0
-444 16 0
444 -23 -16 0
-445 443 0
-445 -444 0
445 -443 444 0
-446 15 0
-446 445 0
446 -15 -445 0
-447 -2 0
-447 325 0
447 2 -325 0
-448 10 0
-448 447 0
448 -10 -447 0
-449 36 0
-449 16 0
449 -36 -16 0
-450 -444 0
-450 -449 0
450 444 449 0
-451 10 0
-451 450 0
451 -10 -450 0
-452 7 0
-452 451 0
452 -7 -451 0
-453 -23 0
-453 449 0
453 23 -449 0
-454 10 0
-454 453 0
454 -10 -453 0
-455 -7 0
-455 454 0
455 7 -454 0
-456 42 0
-456 16 0
456 -42 -16 0
-457 -444 0
-457 -456 0
457 444 456 0
-458 -15 0
-458 457 0
458 15 -457 0
-459 7 0
-459 458 0
459 -7 -458 0
-460 -23 0
-460 456 0
460 23 -456 0
-461 -15 0
-461 460 0
461 15 -460 0
-462 -7 0
-462 461 0
462 7 -461 0
-463 12 0
-463 -2 0
463 -12 2 0
-464 -12 0
-464 2 0
464 12 -2 0
-465 -463 0
-465 -464 0
465 463 464 0
-466 8 0
-466 -465 0
466 -8 465 0
-467 12 0
-467 -1 0
467 -12 1 0
-468 -12 0
-468 1 0
468 12 -1 0
-469 -467 0
-469 -468 0
469 467 468 0
-470 -8 0
-470 -469 0
470 8 469 0
-471 -466 0
-471 -470 0
471 466 470 0
-472 43 0
-472 16 0
472 -43 -16 0
-473 472 0
-473 -207 0
473 -472 207 0
-474 219 0
-474 473 0
474 -219 -473 0
-475 -4 0
-475 -474 0
475 4 474 0
-476 471 0
-476 -475 0
476 -471 475 0
-477 20 0
-477 16 0
477 -20 -16 0
-478 3 0
-478 -477 0
478 -3 477 0
-479 -3 0
-479 477 0
479 3 -477 0
-480 -478 0
-480 -479 0
480 478 479 0
-481 44 0
-481 16 0
481 -44 -16 0
-482 -8 0
-482 481 0
482 8 -481 0
-483 8 0
-483 -481 0
483 -8 481 0
-484 -482 0
-484 -483 0
484 482 483 0
-485 33 0
-485 16 0
485 -33 -16 0
-486 8 0
-486 -485 0
486 -8 485 0
-487 -8 0
-487 485 0
487 8 -485 0
-488 -486 0
-488 -487 0
488 486 487 0
-489 484 0
-489 488 0
489 -484 -488 0
-490 480 0
-490 489 0
490 -480 -489 0
-491 472 0
-491 -490 0
491 -472 490 0
-492 476 0
-492 -491 0
492 -476 491 0
-493 35 0
-493 16 0
493 -35 -16 0
-494 -3 0
-494 493 0
494 3 -493 0
-495 3 0
-495 -493 0
495 -3 493 0
-496 -494 0
-496 -495 0
496 494 495 0
-497 46 0
-497 16 0
497 -46 -16 0
-498 8 0
-498 -497 0
498 -8 497 0
-499 -8 0
-499 497 0
499 8 -497 0
-500 -498 0
-500 -499 0
500 498 499 0
-501 496 0
-501 500 0
501 -496 -500 0
-502 4 0
-502 -501 0
502 -4 501 0
-503 492 0
-503 -502 0
503 -492 502 0
-504 -462 0
-504 503 0
504 462 -503 0
-505 -459 0
-505 504 0
505 459 -504 0
-506 -455 0
-506 505 0
506 455 -505 0
-507 -452 0
-507 506 0
507 452 -506 0
-508 7 0
-508 -477 0
508 -7 477 0
-509 -7 0
-509 477 0
509 7 -477 0
-510 -508 0
-510 -509 0
510 508 509 0
-511 10 0
-511 -481 0
511 -10 481 0
-512 -10 0
-512 481 0
512 10 -481 0
-513 -511 0
-513 -512 0
513 511 512 0
-514 -15 0
-514 485 0
514 15 -485 0
-515 15 0
-515 -485 0
515 -15 485 0
-516 -514 0
-516 -515 0
516 514 515 0
-517 513 0
-517 516 0
517 -513 -516 0
-518 510 0
-518 517 0
518 -510 -517 0
-519 444 0
-519 -518 0
519 -444 518 0
-520 507 0
-520 -519 0
520 -507 519 0
-521 -448 0
-521 520 0
521 448 -520 0
-522 -446 0
-522 521 0
522 446 -521 0
-523 -399 0
-523 522 0
523 399 -522 0
-524 -523 0
-524 413 0
524 523 -413 0
-525 78 0
-525 524 0
525 -78 -524 0
-526 -17 0
-526 -16 0
526 17 16 0
-527 -19 0
-527 -18 0
527 19 18 0
-528 526 0
-528 527 0
528 -526 -527 0
-529 -21 0
-529 -20 0
529 21 20 0
-530 -23 0
-530 -22 0
530 23 22 0
-531 529 0
-531 530 0
531 -529 -530 0
-532 528 0
-532 531 0
532 -528 -531 0
-533 -25 0
-533 -24 0
533 25 24 0
-534 -27 0
-534 -26 0
534 27 26 0
-535 533 0
-535 534 0
535 -533 -534 0
-536 -29 0
-536 -28 0
536 29 28 0
-537 -31 0
-537 -30 0
537 31 30 0
-538 536 0
-538 537 0
538 -536 -537 0
-539 535 0
-539 538 0
539 -535 -538 0
-540 532 0
-540 539 0
540 -532 -539 0
-541 -33 0
-541 -32 0
541 33 32 0
-542 -35 0
-542 -34 0
542 35 34 0
-543 541 0
-543 542 0
543 -541 -542 0
-544 -37 0
-544 -36 0
544 37 36 0
-545 -39 0
-545 -38 0
545 39 38 0
-546 544 0
-546 545 0
546 -544 -545 0
-547 543 0
-547 546 0
547 -543 -546 0
-548 -41 0
-548 -40 0
548 41 40 0
-549 -43 0
-549 -42 0
549 43 42 0
-550 548 0
-550 549 0
550 -548 -549 0
-551 -45 0
-551 -44 0
551 45 44 0
-552 -46 0
-552 551 0
552 46 -551 0
-553 550 0
-553 552 0
553 -550 -552 0
-554 547 0
-554 553 0
554 -547 -553 0
-555 540 0
-555 554 0
555 -540 -554 0
-556 -78 0
-556 555 0
556 78 -555 0
-557 -525 0
-557 -556 0
557 525 556 0
-558 -441 0
-558 557 0
558 441 -557 0
-559 -206 0
-559 558 0
559 206 -558 0
559 0
